column=9;
row=9;
left=[0, 0, 3, 2, 3, 2, 3, 4, 1];
right=[5, 0, 0, 3, 2, 3, 0, 1, 3];
top=[0, 4, 0, 1, 0, 0, 2, 2, 0];
bottom=[0, 0, 0, 5, 3, 0, 2, 3, 2];
Board=[|0,4,0,9,0,0,7,0,0|1,6,8,4,0,2,5,9,0|2,7,9,0,0,1,0,4,8|8,9,0,0,0,0,2,0,0|0,0,0,0,4,0,9,3,0|0,0,3,0,0,7,0,0,0|0,0,0,7,0,9,0,0,0|4,2,7,0,1,0,0,0,9|9,3,1,0,0,4,0,6,7|]